     Program PWSCF v.5.4.0 starts on 15May2020 at 12: 8: 4

     Current dimensions of program PWSCF are:
     Max number of different atomic species (ntypx) = 10
     Max number of k-points (npk) =  40000
     Max angular momentum in pseudopotentials (lmaxx) =  3

     Message from routine setup:
     no reason to have ecutrho>4*ecutwfc

     bravais-lattice index     =            4
     lattice parameter (alat)  =       5.9815  a.u.
     unit-cell volume          =     777.1420 (a.u.)^3
     number of atoms/cell      =            3
     number of atomic types    =            2
     number of electrons       =        18.00
     number of Kohn-Sham states=           13
     kinetic-energy cutoff     =      65.0000  Ry
     charge density cutoff     =     550.0000  Ry
     convergence threshold     =      1.0E-14
     mixing beta               =       0.1000
     number of iterations used =            8  plain     mixing
     Exchange-correlation      = LDA ( 1  1  0  0 0 0)
     nstep                     =           50

     celldm(1)=   5.981497  celldm(2)=   0.000000  celldm(3)=   4.193148
     celldm(4)=   0.000000  celldm(5)=   0.000000  celldm(6)=   0.000000

     crystal axes: (cart. coord. in units of alat)
               a(1) = (   1.000000   0.000000   0.000000 )
               a(2) = (  -0.500000   0.866025   0.000000 )
               a(3) = (   0.000000   0.000000   4.193148 )

     reciprocal axes: (cart. coord. in units 2 pi/alat)
               b(1) = (  1.000000  0.577350  0.000000 )
               b(2) = (  0.000000  1.154701  0.000000 )
               b(3) = (  0.000000  0.000000  0.238484 )

     PseudoPot. # 1 for Mo read from file:
     ./Mo.pz-n-nc.UPF
     MD5 check sum: 9351746152ce7c48ffce095ea233aab8
     Pseudo is Norm-conserving + core correction, Zval =  6.0
     Generated using "atomic" code by A. Dal Corso  v.5.1.2
     Using radial grid of 1229 points,  2 beta functions with:
                l(1) =   1
                l(2) =   2

     PseudoPot. # 2 for  S read from file:
     ./S.pz-n-nc.UPF
     MD5 check sum: 6d5ad2fd30125d3fe3dfa4e9fadc32f8
     Pseudo is Norm-conserving + core correction, Zval =  6.0
     Generated using "atomic" code by A. Dal Corso  v.5.1.2
     Using radial grid of 1151 points,  2 beta functions with:
                l(1) =   0
                l(2) =   1

     atomic species   valence    mass     pseudopotential
        Mo             6.00    95.94000     Mo( 1.00)
        S              6.00    32.06500      S( 1.00)

     12 Sym. Ops. (no inversion) found

   Cartesian axes

     site n.     atom                  positions (alat units)
         1           Mo  tau(   1) = (   0.0000000   0.5773503   2.0965738  )
         2           S   tau(   2) = (   0.5000000   0.2886751   1.5957997  )
         3           S   tau(   3) = (   0.5000000   0.2886751   2.5973479  )

     number of k points=   154  Methfessel-Paxton smearing, width (Ry)=  0.0100

     Number of k-points >= 100: set verbosity='high' to print them.

     Largest allocated arrays     est. size (Mb)     dimensions
     Largest temporary arrays     est. size (Mb)     dimensions

     Check: negative/imaginary core charge=   -0.000002    0.000000

     Initial potential from superposition of free atoms

     starting charge   17.99896, renormalised to   18.00000

     negative rho (up, down):  1.336E-08 0.000E+00
     Starting wfc are   17 randomized atomic wfcs

     Self-consistent Calculation

     iteration #  1     ecut=    65.00 Ry     beta=0.10
     Davidson diagonalization with overlap
     ethr =  1.00E-02,  avg # of iterations =  2.9

     total energy              =     -73.09279708 Ry
     Harris-Foulkes estimate   =     -73.15941981 Ry
     estimated scf accuracy    <       0.40528857 Ry

[...]

     End of self-consistent calculation

     Number of k-points >= 100: set verbosity='high' to print the bands.

     the Fermi energy is     0.5001 ev

!    total energy              =     -73.07472117 Ry
     Harris-Foulkes estimate   =     -73.07472117 Ry
     estimated scf accuracy    <          8.0E-15 Ry

     The total energy is the sum of the following terms:

     one-electron contribution =    -204.07311153 Ry
     hartree contribution      =     108.65201180 Ry
     xc contribution           =     -30.89534895 Ry
     ewald contribution        =      53.24163777 Ry
     smearing contrib. (-TS)   =       0.00008973 Ry

     convergence has been achieved in  30 iterations

     Forces acting on atoms (Ry/au):

     atom    1 type  1   force =     0.00000000    0.00000000    0.00000000
     atom    2 type  2   force =    -0.00000000   -0.00000000    0.00027972
     atom    3 type  2   force =     0.00000000    0.00000000   -0.00027972

     Total force =     0.000396     Total SCF correction =     0.000000

     entering subroutine stress ...

          total   stress  (Ry/bohr**3)                   (kbar)     P=   -0.06
   0.00000110  -0.00000000   0.00000000          0.16     -0.00      0.00
  -0.00000000   0.00000110  -0.00000000         -0.00      0.16     -0.00
   0.00000000   0.00000000  -0.00000341          0.00      0.00     -0.50

     BFGS Geometry Optimization

     number of scf cycles    =   1
     number of bfgs steps    =   0

     enthalpy new            =     -73.0747211744 Ry

     new trust radius        =       0.0004749668 bohr
     new conv_thr            =            1.0E-14 Ry

     new unit-cell volume =    777.11859 a.u.^3 (   115.15709 Ang^3 )

CELL_PARAMETERS (alat=  5.98149675)
   1.000027525  -0.000000000   0.000000000
  -0.500013762   0.866049241   0.000000000
   0.000000000  -0.000000000   4.192790372

ATOMIC_POSITIONS (crystal)
Mo       0.333333330   0.666666660   0.500000000
S        0.666666660   0.333333330   0.380584377
S        0.666666660   0.333333330   0.619415623

     Writing output data file MoS2.save
     NEW-OLD atomic charge density approx. for the potential

     Check: negative/imaginary core charge=   -0.000002    0.000000
     extrapolated charge   17.99946, renormalised to   18.00000

[...]

     Threshold (ethr) on eigenvalues was too large:
     Diagonalizing with lowered threshold

     Davidson diagonalization with overlap
     ethr =  2.65E-09,  avg # of iterations =  3.0

[...]

     bfgs converged in   2 scf cycles and   1 bfgs steps
     (criteria: energy <  1.0E-04, force <  1.0E-03, cell <  5.0E-01)

     End of BFGS Geometry Optimization

     Final enthalpy =     -73.0747211383 Ry
Begin final coordinates
     new unit-cell volume =    777.11859 a.u.^3 (   115.15709 Ang^3 )

CELL_PARAMETERS (alat=  5.98149675)
   1.000027525  -0.000000000   0.000000000
  -0.500013762   0.866049241   0.000000000
   0.000000000  -0.000000000   4.192790372

ATOMIC_POSITIONS (crystal)
Mo       0.333333330   0.666666660   0.500000000
S        0.666666660   0.333333330   0.380584377
S        0.666666660   0.333333330   0.619415623
End final coordinates

     A final scf calculation at the relaxed structure.
     The G-vectors are recalculated for the final unit cell
     Results may differ from those at the preceding step.

     bravais-lattice index     =            4
     lattice parameter (alat)  =       5.9815  a.u.
     unit-cell volume          =     777.1186 (a.u.)^3
     number of atoms/cell      =            3
     number of atomic types    =            2
     number of electrons       =        18.00
     number of Kohn-Sham states=           13
     kinetic-energy cutoff     =      65.0000  Ry
     charge density cutoff     =     550.0000  Ry
     convergence threshold     =      1.0E-14
     mixing beta               =       0.1000
     number of iterations used =            8  plain     mixing
     Exchange-correlation      = LDA ( 1  1  0  0 0 0)

     celldm(1)=   5.981497  celldm(2)=   0.000000  celldm(3)=   4.193148
     celldm(4)=   0.000000  celldm(5)=   0.000000  celldm(6)=   0.000000

     crystal axes: (cart. coord. in units of alat)
               a(1) = (   1.000028  -0.000000   0.000000 )
               a(2) = (  -0.500014   0.866049   0.000000 )
               a(3) = (   0.000000  -0.000000   4.192790 )

     reciprocal axes: (cart. coord. in units 2 pi/alat)
               b(1) = (  0.999972  0.577334 -0.000000 )
               b(2) = (  0.000000  1.154669  0.000000 )
               b(3) = (  0.000000  0.000000  0.238505 )

     PseudoPot. # 1 for Mo read from file:
     ./Mo.pz-n-nc.UPF
     MD5 check sum: 9351746152ce7c48ffce095ea233aab8
     Pseudo is Norm-conserving + core correction, Zval =  6.0
     Generated using "atomic" code by A. Dal Corso  v.5.1.2
     Using radial grid of 1229 points,  2 beta functions with:
                l(1) =   1
                l(2) =   2

     PseudoPot. # 2 for  S read from file:
     ./S.pz-n-nc.UPF
     MD5 check sum: 6d5ad2fd30125d3fe3dfa4e9fadc32f8
     Pseudo is Norm-conserving + core correction, Zval =  6.0
     Generated using "atomic" code by A. Dal Corso  v.5.1.2
     Using radial grid of 1151 points,  2 beta functions with:
                l(1) =   0
                l(2) =   1

     atomic species   valence    mass     pseudopotential
        Mo             6.00    95.94000     Mo( 1.00)
        S              6.00    32.06500      S( 1.00)

     12 Sym. Ops. (no inversion) found

   Cartesian axes

     site n.     atom                  positions (alat units)
         1           Mo  tau(   1) = (   0.0000000   0.5773662   2.0963952  )
         2           S   tau(   2) = (   0.5000138   0.2886831   1.5957105  )
         3           S   tau(   3) = (   0.5000138   0.2886831   2.5970799  )

     number of k points=   154  Methfessel-Paxton smearing, width (Ry)=  0.0100

     Number of k-points >= 100: set verbosity='high' to print them.

     Largest allocated arrays     est. size (Mb)     dimensions
     Largest temporary arrays     est. size (Mb)     dimensions

     Check: negative/imaginary core charge=   -0.000002    0.000000

     Initial potential from superposition of free atoms

     starting charge   17.99896, renormalised to   18.00000

     negative rho (up, down):  1.305E-08 0.000E+00
     Starting wfc are   17 randomized atomic wfcs

     Writing output data file MoS2.save

     Self-consistent Calculation

[...]

     total energy              =     -73.07472113 Ry
     Harris-Foulkes estimate   =     -73.07472113 Ry
     estimated scf accuracy    <          1.9E-14 Ry

     iteration # 30     ecut=    65.00 Ry     beta=0.10
     Davidson diagonalization with overlap
     ethr =  1.00E-13,  avg # of iterations =  1.0

     End of self-consistent calculation

     Number of k-points >= 100: set verbosity='high' to print the bands.

     the Fermi energy is     0.4993 ev

!    total energy              =     -73.07472113 Ry
     Harris-Foulkes estimate   =     -73.07472113 Ry
     estimated scf accuracy    <          5.8E-15 Ry

     The total energy is the sum of the following terms:

     one-electron contribution =    -204.05840034 Ry
     hartree contribution      =     108.64456496 Ry
     xc contribution           =     -30.89566394 Ry
     ewald contribution        =      53.23468751 Ry
     smearing contrib. (-TS)   =       0.00009068 Ry

     convergence has been achieved in  30 iterations

     Forces acting on atoms (Ry/au):

     atom    1 type  1   force =    -0.00000000   -0.00000000    0.00000000
     atom    2 type  2   force =    -0.00000000   -0.00000000    0.00008427
     atom    3 type  2   force =    -0.00000000   -0.00000000   -0.00008427

     Total force =     0.000119     Total SCF correction =     0.000000

     entering subroutine stress ...

          total   stress  (Ry/bohr**3)                   (kbar)     P=    0.04
   0.00000139   0.00000000  -0.00000000          0.21      0.00     -0.00
   0.00000000   0.00000139   0.00000000          0.00      0.21      0.00
  -0.00000000   0.00000000  -0.00000191         -0.00      0.00     -0.28

     Writing output data file MoS2.save

     General routines

     Parallel routines

   This run was terminated on:  12:13: 9  15May2020

   JOB DONE.