     Program PWSCF v.5.4.0 starts on 27Jun2020 at 18:25:41

     Current dimensions of program PWSCF are:
     Max number of different atomic species (ntypx) = 10
     Max number of k-points (npk) =  40000
     Max angular momentum in pseudopotentials (lmaxx) =  3
     Message from routine iosys:
     pot_extrapolation='second_order' not available, using 'atomic'
     Message from routine iosys:
     wfc_extrapolation='second_order' not available, using 'atomic'
               file B.pbe-mt_fhi.UPF: wavefunction(s)  4f renormalized
               file N.pbe-mt_fhi.UPF: wavefunction(s)  4f renormalized
               file Li.pbe-mt_fhi.UPF: wavefunction(s)  2p 4f renormalized

     Message from routine setup:
     no reason to have ecutrho>4*ecutwfc

     bravais-lattice index     =            4
     lattice parameter (alat)  =       8.1636  a.u.
     unit-cell volume          =    1636.0121 (a.u.)^3
     number of atoms/cell      =            7
     number of atomic types    =            3
     number of electrons       =        25.00
     number of Kohn-Sham states=           17
     kinetic-energy cutoff     =      65.0000  Ry
     charge density cutoff     =     650.0000  Ry
     convergence threshold     =      1.0E-08
     mixing beta               =       0.7000
     number of iterations used =            8  plain     mixing
     Exchange-correlation      = PBE ( 1  4  3  4 0 0)
     nstep                     =         2800

     celldm(1)=   8.163620  celldm(2)=   0.000000  celldm(3)=   3.472222
     celldm(4)=   0.000000  celldm(5)=   0.000000  celldm(6)=   0.000000

     crystal axes: (cart. coord. in units of alat)
               a(1) = (   1.000000   0.000000   0.000000 )
               a(2) = (  -0.500000   0.866025   0.000000 )
               a(3) = (   0.000000   0.000000   3.472222 )

     reciprocal axes: (cart. coord. in units 2 pi/alat)
               b(1) = (  1.000000  0.577350  0.000000 )
               b(2) = (  0.000000  1.154701  0.000000 )
               b(3) = (  0.000000  0.000000  0.288000 )

     PseudoPot. # 1 for  B read from file:
     ./B.pbe-mt_fhi.UPF
     MD5 check sum: b0973759d6fe2b7794663d097043aaa9
     Pseudo is Norm-conserving + core correction, Zval =  3.0
     Generated using FHI98PP, converted with fhi2upf.x v.5.0.2
     Using radial grid of  453 points,  3 beta functions with:
                l(1) =   0
                l(2) =   1
                l(3) =   3

     PseudoPot. # 2 for  N read from file:
     ./N.pbe-mt_fhi.UPF
     MD5 check sum: 7f83aac2c813a0e1096af144166c4722
     Pseudo is Norm-conserving, Zval =  5.0
     Generated using FHI98PP, converted with fhi2upf.x v.5.0.2
     Using radial grid of  467 points,  3 beta functions with:
                l(1) =   0
                l(2) =   1
                l(3) =   3

     PseudoPot. # 3 for Li read from file:
     ./Li.pbe-mt_fhi.UPF
     MD5 check sum: 3419f5616d131090147e867976aae79b
     Pseudo is Norm-conserving + core correction, Zval =  1.0
     Generated using FHI98PP, converted with fhi2upf.x v.5.0.2
     Using radial grid of  433 points,  3 beta functions with:
                l(1) =   0
                l(2) =   1
                l(3) =   3

     atomic species   valence    mass     pseudopotential
        B              3.00    10.81000      B( 1.00)
        N              5.00    14.01000      N( 1.00)
        Li             1.00     6.94000     Li( 1.00)

      3 Sym. Ops. (no inversion) found

   Cartesian axes

     site n.     atom                  positions (alat units)
         1           B   tau(   1) = (  -0.3333360   0.5773484   0.0000000  )
         2           N   tau(   2) = (  -0.1666680   0.2886742   0.0000000  )
         3           B   tau(   3) = (   0.1666652   0.2886742   0.0000000  )
         4           N   tau(   4) = (   0.3333332   0.0000000   0.0000000  )
         5           B   tau(   5) = (   0.6666664   0.0000000   0.0000000  )
         6           N   tau(   6) = (   0.3333332   0.5773484   0.0000000  )
         7           Li  tau(   7) = (  -0.0000014   0.5773484   0.3958332  )

     number of k points=    68  Methfessel-Paxton smearing, width (Ry)=  0.0001
                       cart. coord. in units 2pi/alat
        k(    1) = (   0.0000000   0.0000000   0.0000000), wk =   0.0050000
        k(    2) = (   0.0000000   0.0577350   0.0000000), wk =   0.0300000
        k(    3) = (   0.0000000   0.1154701   0.0000000), wk =   0.0300000
        k(    4) = (   0.0000000   0.1732051   0.0000000), wk =   0.0300000
        k(    5) = (   0.0000000   0.2309401   0.0000000), wk =   0.0300000
        k(    6) = (   0.0000000   0.2886751   0.0000000), wk =   0.0300000
        k(    7) = (   0.0000000   0.3464102   0.0000000), wk =   0.0300000
        k(    8) = (   0.0000000   0.4041452   0.0000000), wk =   0.0300000
        k(    9) = (   0.0000000   0.4618802   0.0000000), wk =   0.0300000
        k(   10) = (   0.0000000   0.5196152   0.0000000), wk =   0.0300000
        k(   11) = (   0.0000000  -0.5773503   0.0000000), wk =   0.0150000
        k(   12) = (   0.0500000   0.0866025   0.0000000), wk =   0.0300000
        k(   13) = (   0.0500000   0.1443376   0.0000000), wk =   0.0300000
        k(   14) = (   0.0500000   0.2020726   0.0000000), wk =   0.0300000
        k(   15) = (   0.0500000   0.2598076   0.0000000), wk =   0.0300000
        k(   16) = (   0.0500000   0.3175426   0.0000000), wk =   0.0300000
        k(   17) = (   0.0500000   0.3752777   0.0000000), wk =   0.0300000
        k(   18) = (   0.0500000   0.4330127   0.0000000), wk =   0.0300000
        k(   19) = (   0.0500000   0.4907477   0.0000000), wk =   0.0300000
        k(   20) = (   0.0500000   0.5484828   0.0000000), wk =   0.0300000
        k(   21) = (   0.1000000   0.1732051   0.0000000), wk =   0.0300000
        k(   22) = (   0.1000000   0.2309401   0.0000000), wk =   0.0300000
        k(   23) = (   0.1000000   0.2886751   0.0000000), wk =   0.0300000
        k(   24) = (   0.1000000   0.3464102   0.0000000), wk =   0.0300000
        k(   25) = (   0.1000000   0.4041452   0.0000000), wk =   0.0300000
        k(   26) = (   0.1000000   0.4618802   0.0000000), wk =   0.0300000
        k(   27) = (   0.1000000   0.5196152   0.0000000), wk =   0.0300000
        k(   28) = (   0.1000000   0.5773503   0.0000000), wk =   0.0300000
        k(   29) = (   0.1500000   0.2598076   0.0000000), wk =   0.0300000
        k(   30) = (   0.1500000   0.3175426   0.0000000), wk =   0.0300000
        k(   31) = (   0.1500000   0.3752777   0.0000000), wk =   0.0300000
        k(   32) = (   0.1500000   0.4330127   0.0000000), wk =   0.0300000
        k(   33) = (   0.1500000   0.4907477   0.0000000), wk =   0.0300000
        k(   34) = (   0.1500000   0.5484828   0.0000000), wk =   0.0300000
        k(   35) = (   0.2000000   0.3464102   0.0000000), wk =   0.0300000
        k(   36) = (   0.2000000   0.4041452   0.0000000), wk =   0.0300000
        k(   37) = (   0.2000000   0.4618802   0.0000000), wk =   0.0300000
        k(   38) = (   0.2000000   0.5196152   0.0000000), wk =   0.0300000
        k(   39) = (   0.2000000   0.5773503   0.0000000), wk =   0.0300000
        k(   40) = (   0.2500000   0.4330127   0.0000000), wk =   0.0300000
        k(   41) = (   0.2500000   0.4907477   0.0000000), wk =   0.0300000
        k(   42) = (   0.2500000   0.5484828   0.0000000), wk =   0.0300000
        k(   43) = (   0.3000000   0.5196152   0.0000000), wk =   0.0300000
        k(   44) = (   0.3000000   0.5773503   0.0000000), wk =   0.0300000
        k(   45) = (   0.0500000  -0.1443376   0.0000000), wk =   0.0300000
        k(   46) = (   0.0500000  -0.2020726   0.0000000), wk =   0.0300000
        k(   47) = (   0.0500000  -0.2598076   0.0000000), wk =   0.0300000
        k(   48) = (   0.0500000  -0.3175426   0.0000000), wk =   0.0300000
        k(   49) = (   0.0500000  -0.3752777   0.0000000), wk =   0.0300000
        k(   50) = (   0.0500000  -0.4330127   0.0000000), wk =   0.0300000
        k(   51) = (   0.0500000  -0.4907477   0.0000000), wk =   0.0300000
        k(   52) = (   0.0500000  -0.5484828   0.0000000), wk =   0.0300000
        k(   53) = (   0.1000000  -0.2309401   0.0000000), wk =   0.0300000
        k(   54) = (   0.1000000  -0.2886751   0.0000000), wk =   0.0300000
        k(   55) = (   0.1000000  -0.3464102   0.0000000), wk =   0.0300000
        k(   56) = (   0.1000000  -0.4041452   0.0000000), wk =   0.0300000
        k(   57) = (   0.1000000  -0.4618802   0.0000000), wk =   0.0300000
        k(   58) = (   0.1000000  -0.5196152   0.0000000), wk =   0.0300000
        k(   59) = (   0.1500000  -0.3175426   0.0000000), wk =   0.0300000
        k(   60) = (   0.1500000  -0.3752777   0.0000000), wk =   0.0300000
        k(   61) = (   0.1500000  -0.4330127   0.0000000), wk =   0.0300000
        k(   62) = (   0.1500000  -0.4907477   0.0000000), wk =   0.0300000
        k(   63) = (   0.1500000  -0.5484828   0.0000000), wk =   0.0300000
        k(   64) = (   0.2000000  -0.4041452   0.0000000), wk =   0.0300000
        k(   65) = (   0.2000000  -0.4618802   0.0000000), wk =   0.0300000
        k(   66) = (   0.2000000  -0.5196152   0.0000000), wk =   0.0300000
        k(   67) = (   0.2500000  -0.4907477   0.0000000), wk =   0.0300000
        k(   68) = (   0.2500000  -0.5484828   0.0000000), wk =   0.0300000

     Largest allocated arrays     est. size (Mb)     dimensions
     Largest temporary arrays     est. size (Mb)     dimensions

     Initial potential from superposition of free atoms
     Check: negative starting charge=   -0.001192

     starting charge   24.99515, renormalised to   25.00000

     negative rho (up, down):  1.193E-03 0.000E+00
     Starting wfc are  112 randomized atomic wfcs

     Self-consistent Calculation

     iteration #  1     ecut=    65.00 Ry     beta=0.70
     Davidson diagonalization with overlap
     ethr =  1.00E-02,  avg # of iterations =  2.3

     negative rho (up, down):  3.500E-04 0.000E+00

     total energy              =     -80.61818801 Ry
     Harris-Foulkes estimate   =     -81.60746818 Ry
     estimated scf accuracy    <       1.38489567 Ry

[...]

     End of self-consistent calculation

          k = 0.0000 0.0000 0.0000 ( 14557 PWs)   bands (ev):

   -22.0005 -18.2495 -18.2493 -12.3767 -12.1324 -11.4414 -11.4414  -9.6673
    -5.6103  -5.6101  -4.4446  -4.4444  -0.5531   0.1129   0.1130   1.5447
     2.6573

[...]

     the Fermi energy is     0.2865 ev

!    total energy              =     -81.16164355 Ry
     Harris-Foulkes estimate   =     -81.16164356 Ry
     estimated scf accuracy    <          6.6E-09 Ry

     The total energy is the sum of the following terms:

     one-electron contribution =    -489.75373757 Ry
     hartree contribution      =     249.57013805 Ry
     xc contribution           =     -26.24314296 Ry
     ewald contribution        =     185.26510070 Ry
     smearing contrib. (-TS)   =      -0.00000177 Ry

     convergence has been achieved in  17 iterations

     Forces acting on atoms (Ry/au):

     atom    1 type  1   force =    -0.01633345    0.00000455   -0.01921385
     atom    2 type  2   force =     0.00803330    0.01389643    0.00769758
     atom    3 type  1   force =     0.00816279   -0.01414746   -0.01921385
     atom    4 type  2   force =     0.00801802   -0.01390525    0.00769758
     atom    5 type  1   force =     0.00817066    0.01414291   -0.01921385
     atom    6 type  2   force =    -0.01605131    0.00000882    0.00769758
     atom    7 type  3   force =     0.00000000    0.00000000    0.03454882

     Total force =     0.063657     Total SCF correction =     0.000143

     BFGS Geometry Optimization

     number of scf cycles    =   1
     number of bfgs steps    =   0

     energy   new            =     -81.1616435491 Ry

     new trust radius        =       0.0345488202 bohr
     new conv_thr            =       0.0000000100 Ry

ATOMIC_POSITIONS (angstrom)
B       -1.448655509   2.494148516  -0.010167532
N       -0.715755073   1.254426736   0.004073382
B        0.724313451   1.239586549  -0.010167532
N        1.444242952  -0.007358344   0.004073382
B        2.884323728   0.007484105  -0.010167532
N        1.431506012   2.494150778   0.004073382
Li      -0.000006110   2.494146110   1.728282448

     Writing output data file BN-Li-TC.save
     Check: negative starting charge=   -0.001192
     NEW-OLD atomic charge density approx. for the potential
     Check: negative starting charge=   -0.001180

[...]

     energy   old            =     -81.1616435491 Ry
     energy   new            =     -81.1647329471 Ry

     CASE: energy  _new < energy  _old

[...]

     WARNING: bfgs curvature condition failed, Theta= 0.726
     uphill step: resetting bfgs history

[...]

     WARNING: bfgs curvature condition failed, Theta= 0.979
     new trust radius        =       0.1013585483 bohr
     new conv_thr            =       0.0000000022 Ry

[...]

     iteration #  1     ecut=    65.00 Ry     beta=0.70
     Davidson diagonalization with overlap
     c_bands:  1 eigenvalues not converged
     c_bands:  1 eigenvalues not converged
     ethr =  1.00E-06,  avg # of iterations =  9.1

[...]

     number of scf cycles    =  22
     number of bfgs steps    =  21

     energy   old            =     -81.2118569498 Ry
     energy   new            =     -81.2119115727 Ry

     CASE: energy  _new < energy  _old

     new trust radius        =       0.0564757145 bohr
     new conv_thr            =            1.0E-10 Ry

ATOMIC_POSITIONS (angstrom)
B       -1.440249478   2.494146918  -0.331485048
N       -0.719904516   1.247242652  -0.332021043
B        0.720111819   1.246867185  -0.331485048
N        1.440096074  -0.000172779  -0.332021043
B        2.880119329   0.000205067  -0.331485048
N        1.439802332   2.494149297  -0.332021043
Li      -0.000006110   2.494146110   3.700518273

     Writing output data file BN-Li-TC.save
     Check: negative starting charge=   -0.000577
     NEW-OLD atomic charge density approx. for the potential
     Check: negative starting charge=   -0.000561

[...]

     Self-consistent Calculation

     iteration #  1     ecut=    65.00 Ry     beta=0.70
     Davidson diagonalization with overlap
     c_bands:  1 eigenvalues not converged
     ethr =  1.00E-06,  avg # of iterations =  7.2

[...]

     negative rho (up, down):  3.180E-06 0.000E+00

[...]

     total energy              =     -81.21191797 Ry
     Harris-Foulkes estimate   =     -81.21191797 Ry
     estimated scf accuracy    <          4.6E-10 Ry

     iteration # 10     ecut=    65.00 Ry     beta=0.70
     Davidson diagonalization with overlap
     ethr =  1.85E-12,  avg # of iterations =  1.5

     End of self-consistent calculation

[...]

          k = 0.2500-0.5485 0.0000 ( 14462 PWs)   bands (ev):

   -19.0903 -18.8234 -18.3499 -10.7222  -9.7626  -9.2453  -6.9242  -6.7536
    -6.5006  -6.1130  -5.7441  -5.0766   0.9268   1.5323   2.3997   3.1137
     3.3660

     the Fermi energy is    -0.2058 ev

!    total energy              =     -81.21191797 Ry
     Harris-Foulkes estimate   =     -81.21191797 Ry
     estimated scf accuracy    <          1.9E-11 Ry

     The total energy is the sum of the following terms:

     one-electron contribution =    -463.96666935 Ry
     hartree contribution      =     237.64820053 Ry
     xc contribution           =     -26.07364584 Ry
     ewald contribution        =     171.18019686 Ry
     smearing contrib. (-TS)   =      -0.00000018 Ry

     convergence has been achieved in  10 iterations

     Forces acting on atoms (Ry/au):

     atom    1 type  1   force =     0.00005976    0.00000041    0.00004182
     atom    2 type  2   force =     0.00004228    0.00007208   -0.00005199
     atom    3 type  1   force =    -0.00003023    0.00005155    0.00004182
     atom    4 type  2   force =     0.00004128   -0.00007266   -0.00005199
     atom    5 type  1   force =    -0.00002953   -0.00005196    0.00004182
     atom    6 type  2   force =    -0.00008356    0.00000058   -0.00005199
     atom    7 type  3   force =     0.00000000    0.00000000    0.00003051

     Total force =     0.000214     Total SCF correction =     0.000014

     bfgs converged in  23 scf cycles and  22 bfgs steps
     (criteria: energy <  1.0E-05, force <  1.0E-03)

     End of BFGS Geometry Optimization

     Final energy   =     -81.2119179734 Ry
Begin final coordinates

ATOMIC_POSITIONS (angstrom)
B       -1.440249478   2.494146918  -0.331485048
N       -0.719904516   1.247242652  -0.332021043
B        0.720111819   1.246867185  -0.331485048
N        1.440096074  -0.000172779  -0.332021043
B        2.880119329   0.000205067  -0.331485048
N        1.439802332   2.494149297  -0.332021043
Li      -0.000006110   2.494146110   3.700518273
End final coordinates

     Writing output data file BN-Li-TC.save

     General routines

     Parallel routines

   This run was terminated on:  18:44: 0  27Jun2020

   JOB DONE.